1,40559,45648,8098,29075,3636,18385,48304,27131,28167,46178,23006,49106,38301,12589,15223,43796,15674,34589,28310,5367,2753,23743,46683,32684,28282,11013,6908,34952,39824,5637,42132,25328,2793,5258,31963,30692,45681,28037,38853,23076,41250,37666,38251,21710,42623,12961,24408,41434,12777,39067,36264,43151,22332,28791,46834,194,44777,27279,8104,42809,940,17619,41261,25792,32958,40830,1335,19603,11245,42523,23818,7794,24021,33558,43182,14414,40035,48497,37609,41114,
2,194,940,194,194,940,194,1335,2753,1600,5612,4338,1367,1923,1309,3089,11846,1547,2049,997,3367,810,287,1692,493,2105,14115,2290,309,1821,912,5454,2433,535,4683,1786,1965,14115,939,4014,6017,309,2155,3932,9208,5245,1409,156,1916,685,2160,3367,4198,608,2160,1542,1437,1184,4099,1291,2160,5009,18701,2922,390,13650,9958,3089,18763,1926,2731,8129,1528,4383,1171,14918,436,17725,923,28813,9560,
3,156,156,194,194,287,194,156,309,1233,194,194,194,1203,194,1179,194,1931,194,2959,2436,194,1335,194,156,309,2649,639,1396,149,194,318,194,4882,1261,507,194,4504,194,4805,11917,309,522,194,194,1916,194,4805,522,194,194,194,194,194,1622,2160,608,194,5011,194,194,194,194,984,156,194,287,22962,194,522,194,194,318,194,24793,11446,18424,14523,1320,14982,194,
4,149,156,156,149,156,194,156,194,10630,194,309,156,5307,194,194,194,290,318,6566,194,194,194,194,194,194,998,194,194,194,194,194,194,194,194,194,4042,522,194,194,1282,194,194,194,194,194,194,194,287,194,194,194,831,5507,1179,194,287,194,194,194,194,194,2619,194,194,194,194,194,194,194,194,10630,194,17457,50350,45532,525,194,194,19550,52434,
5,149,156,156,149,156,156,156,194,194,194,194,290,194,194,194,194,290,194,194,194,194,194,831,194,194,194,194,194,194,194,194,194,194,194,194,194,194,194,194,194,194,194,194,194,194,194,194,194,194,194,194,194,194,194,194,194,194,194,194,194,194,194,194,194,194,194,194,194,194,194,194,194,7901,53318,32445,22366,20948,58911,194,25636,
6,149,156,156,149,156,156,156,194,194,194,194,194,194,194,194,194,194,194,194,194,194,194,194,194,194,194,194,194,194,194,194,194,194,194,194,36874,20688,194,194,194,194,194,194,194,194,194,12181,454,194,194,194,194,194,194,194,194,194,194,194,194,194,194,194,194,194,194,454,194,194,194,194,194,1404,1582,41770,31705,41387,12910,194,194,
7,149,156,156,149,156,156,156,194,194,194,194,194,194,194,194,194,194,194,194,194,194,194,194,194,156,194,194,194,194,194,194,194,194,194,194,194,194,194,194,194,194,194,194,194,194,194,194,194,194,194,194,14787,194,194,194,194,194,194,194,194,194,194,194,194,194,194,194,194,194,194,194,194,35664,38857,32010,194,44847,29865,28099,194,
8,149,156,156,149,156,156,156,156,194,194,194,194,194,194,194,194,194,194,194,194,194,194,194,194,194,194,194,194,194,194,194,194,194,194,12853,194,194,194,194,194,194,12395,194,194,194,194,194,194,194,194,194,194,194,194,194,194,194,194,194,194,156,194,194,194,194,194,194,194,194,194,194,194,23537,59438,31147,194,194,43019,194,39918,
9,149,156,156,149,156,156,156,156,194,194,194,194,29593,194,194,194,194,194,194,194,194,194,194,194,194,194,194,194,194,194,194,194,194,194,194,194,194,33491,194,194,194,194,194,194,194,194,194,194,156,194,194,194,194,156,194,194,194,194,194,194,194,194,194,194,194,194,194,194,194,194,194,194,18340,21683,7739,60407,194,53789,194,46290,
10,149,156,156,149,156,156,156,156,194,194,194,194,194,194,194,194,194,194,194,194,194,194,194,194,194,194,194,194,194,194,194,194,194,194,194,194,194,194,194,194,194,194,194,194,194,194,194,194,194,194,194,194,194,194,194,194,194,194,194,194,194,194,194,194,194,194,194,194,194,194,194,194,33833,22996,41005,194,194,37921,194,194,
11,149,156,156,149,156,156,156,156,194,194,194,194,194,12239,194,194,194,194,194,194,194,194,194,194,194,194,194,194,194,194,194,194,194,194,194,194,194,194,194,194,194,194,194,194,194,194,194,194,194,194,194,194,194,194,194,194,194,194,194,194,194,194,194,194,194,194,194,194,194,194,194,194,47500,28036,194,28607,194,13330,194,194,
12,149,156,156,149,156,156,156,156,194,194,194,194,194,194,194,194,194,194,194,194,194,194,194,194,194,194,194,194,194,194,194,194,194,194,194,194,194,194,194,18925,194,194,194,194,7897,194,194,194,194,194,758,194,194,194,194,194,194,194,194,194,194,194,194,194,194,194,194,194,194,194,194,194,8281,33536,40880,45323,11227,32603,26262,194,
13,149,156,156,149,156,156,156,156,6179,194,194,194,194,194,194,194,194,194,194,194,194,194,194,194,194,194,194,194,194,194,6179,194,194,194,194,194,194,194,194,194,194,194,194,194,194,194,194,194,194,194,194,194,194,194,194,194,194,149,194,194,194,194,194,194,194,194,194,194,6179,194,194,194,48295,194,194,194,12700,36490,44972,194,
14,149,149,156,149,156,156,156,156,194,194,194,194,194,194,194,194,194,194,194,194,194,194,194,194,194,6179,194,194,194,194,194,194,194,194,194,194,194,194,194,194,194,194,194,194,194,194,194,194,194,194,194,149,194,194,194,194,194,194,194,194,194,194,194,194,194,194,194,194,194,194,194,194,194,194,27204,42388,194,194,194,12579,
15,149,149,149,149,156,156,156,156,194,194,194,194,194,194,194,194,194,194,194,194,194,194,194,194,194,194,194,194,194,194,194,194,194,194,194,194,194,194,194,194,194,194,194,194,194,194,194,194,194,194,194,194,194,194,194,194,194,194,194,194,194,194,194,194,194,194,194,194,194,194,194,194,32917,194,194,39520,11753,57416,194,43586,
16,149,149,149,149,156,156,156,156,194,194,194,194,194,194,194,194,194,194,194,194,194,194,194,194,194,194,194,194,194,194,194,194,194,194,14211,194,194,194,194,194,194,194,194,194,194,194,194,194,194,194,194,194,194,194,194,194,194,194,194,194,194,194,194,194,194,194,194,194,194,194,194,194,8212,55234,194,50687,194,26898,194,194,
17,149,149,149,149,156,156,156,156,194,194,194,194,194,194,194,194,194,194,194,194,194,194,194,194,194,194,194,194,194,194,194,194,194,194,194,194,194,194,194,194,194,194,194,194,194,194,194,194,194,194,194,194,194,156,194,194,194,194,194,194,194,194,194,194,194,194,194,194,194,194,194,194,30462,194,194,336,44097,27886,33551,46292,
18,149,149,149,149,156,156,156,156,194,194,194,194,194,194,194,194,194,194,194,194,194,194,194,194,194,194,194,194,194,194,194,194,194,194,194,194,194,194,194,194,194,194,194,194,194,194,194,194,194,194,194,194,194,194,194,194,194,194,194,194,194,194,194,194,194,194,194,194,194,194,1653,194,194,194,23035,194,49116,194,43102,19697,
19,149,149,149,149,156,156,156,156,194,194,194,194,194,194,194,194,194,194,194,194,194,194,194,194,194,194,194,194,194,194,194,194,194,194,194,194,194,194,194,194,194,194,194,194,194,194,194,194,194,194,194,194,194,194,194,194,194,194,194,194,194,194,194,194,194,194,194,194,194,194,194,194,194,194,56926,20840,17570,194,194,26288,
20,149,149,149,149,156,156,156,156,194,194,194,194,194,194,194,194,194,194,194,194,194,194,194,194,194,18795,194,194,194,194,194,194,194,194,194,194,194,194,194,194,149,194,194,194,194,194,194,194,194,194,194,19240,194,194,194,194,194,194,194,194,194,194,194,194,194,194,194,194,194,194,194,194,13706,56581,4637,36718,28998,194,25382,57029,
21,149,149,149,149,149,156,156,156,194,194,194,194,194,194,194,194,194,194,194,194,149,194,194,194,194,194,194,194,194,194,194,194,194,194,194,194,194,194,194,194,194,194,194,194,194,194,194,194,194,194,194,194,15566,194,194,194,194,194,194,194,194,194,194,194,194,194,194,194,194,194,194,194,194,16192,194,57867,32821,53107,32334,51100,
22,149,149,149,149,149,149,156,156,194,194,194,194,194,194,194,194,194,3964,194,194,194,194,194,194,194,194,194,194,194,194,194,194,194,194,194,194,194,194,194,194,194,194,194,194,194,194,194,194,194,194,194,194,194,194,194,194,194,17096,194,194,194,194,194,194,194,194,194,194,194,194,194,194,22308,194,18748,23371,33724,52125,54205,194,
23,149,149,149,149,149,149,156,156,194,194,194,194,194,194,194,194,194,194,194,194,194,194,194,194,194,194,194,194,194,194,194,194,194,194,194,194,194,194,194,194,194,194,194,194,194,194,194,194,194,194,194,194,194,194,194,194,194,194,194,194,194,194,194,194,194,194,194,194,194,194,194,194,57187,27259,19116,194,194,51047,5472,10746,
24,149,149,149,149,149,149,156,156,194,194,194,194,194,194,194,194,194,194,194,194,194,194,194,194,194,194,194,194,194,194,194,194,194,194,194,194,194,194,9573,194,194,194,194,194,194,35942,194,5389,194,194,194,194,194,194,194,194,194,194,194,194,194,194,194,194,6510,194,194,194,194,194,194,194,39593,194,17769,53841,194,194,39841,46482,
25,149,149,149,149,149,149,156,156,194,194,194,194,194,194,194,194,194,194,194,194,194,149,194,194,194,194,194,194,194,194,194,194,194,194,194,194,194,194,194,194,194,194,149,194,194,194,194,194,194,194,194,194,194,194,194,194,194,194,194,194,194,194,194,194,194,194,194,194,194,194,194,194,14365,38360,6533,194,37728,194,194,194,
26,149,149,149,149,149,149,149,149,156,194,194,194,194,194,194,194,194,194,194,194,194,194,194,194,194,194,194,194,194,194,194,194,194,194,194,194,194,194,194,194,194,194,194,194,194,194,194,194,194,194,194,194,194,194,194,194,194,194,194,194,194,194,194,194,194,194,194,194,194,194,194,194,41938,194,42184,55548,194,25216,6906,15243,
27,149,149,149,149,149,149,149,149,194,194,194,194,194,194,194,194,194,194,194,194,16237,5396,194,194,194,194,194,194,194,194,194,194,15789,194,194,194,194,194,194,194,194,194,194,194,194,194,194,194,194,194,194,194,194,194,194,194,194,194,194,194,194,194,194,194,194,194,194,194,194,194,194,194,194,32659,9956,29404,49610,41085,23517,194,
28,149,149,149,149,149,149,149,149,194,194,194,194,194,194,194,194,194,194,194,194,194,194,194,194,194,194,194,194,194,194,194,194,194,194,194,194,194,194,194,194,194,194,194,194,194,194,194,194,26502,194,194,194,194,35802,194,194,194,194,194,194,194,194,194,194,1519,194,194,194,194,194,194,194,13851,149,194,194,49645,39650,194,194,
29,149,149,149,149,149,149,149,149,194,194,194,194,194,6892,194,194,194,194,194,194,194,194,194,194,194,194,194,194,194,194,194,194,194,194,194,194,194,194,194,194,194,194,194,194,149,194,194,194,194,194,194,194,194,194,194,194,194,194,194,194,194,194,194,194,194,194,194,194,194,194,194,194,194,6526,30868,194,194,194,18158,47516,
30,149,149,149,149,149,149,149,149,194,194,194,149,194,194,194,194,194,194,194,194,194,194,194,194,194,194,194,194,194,194,194,194,194,194,194,194,194,194,194,194,194,194,194,194,194,194,194,194,194,194,194,194,194,194,194,194,194,194,194,149,194,194,194,194,194,194,194,194,194,194,194,194,51686,18819,54480,194,19686,194,32446,25662,
31,149,149,149,149,149,149,149,149,194,194,194,194,7422,194,194,194,194,194,194,194,194,194,194,194,194,194,194,194,194,194,7422,194,194,194,194,194,194,194,194,194,194,194,194,194,194,194,194,194,194,194,194,194,194,194,194,194,194,194,194,194,194,194,194,194,194,194,194,194,194,194,194,194,36408,52557,16409,10999,44550,8189,49587,14161,
32,149,149,149,149,149,149,149,149,194,194,194,194,194,194,194,194,194,194,194,194,194,194,194,194,194,194,194,194,194,194,194,194,194,194,194,194,194,194,194,194,194,194,194,194,194,194,194,194,194,194,194,194,194,194,46081,194,194,194,194,194,194,194,194,194,194,194,194,194,194,194,194,194,194,18813,39182,20261,194,37551,26668,44044,
33,149,149,149,149,149,149,149,149,194,194,194,194,194,194,194,194,194,194,194,194,194,194,194,194,194,194,194,194,194,194,194,194,194,194,194,194,194,194,194,149,194,194,194,194,194,194,194,194,194,194,194,194,194,194,194,194,194,194,194,194,194,194,194,194,194,194,194,194,194,194,194,194,34668,42424,29892,194,54271,1752,194,194,
34,149,149,149,149,149,149,149,149,194,194,194,194,194,194,194,194,194,194,194,194,194,194,194,194,194,194,194,194,194,194,194,194,194,194,194,194,194,194,194,194,194,194,194,194,194,194,194,194,194,194,194,194,194,194,194,194,194,194,194,194,194,194,194,194,194,194,194,194,194,194,194,149,194,17230,18944,24077,39396,194,46586,31019,
35,149,149,149,149,149,149,149,149,194,194,194,194,194,194,194,194,194,194,194,194,194,194,194,194,194,194,194,194,194,194,194,194,194,194,19559,194,194,194,194,194,194,194,1953,194,194,194,194,1953,194,194,194,194,194,194,194,194,194,1953,194,194,194,194,194,194,194,194,194,17002,194,194,194,194,194,46398,194,960,46215,33341,50979,23828,
36,149,149,149,149,149,149,149,149,194,194,194,194,194,194,194,194,194,194,12086,194,194,24689,194,194,194,2106,194,194,149,194,194,194,194,194,6282,194,194,194,194,194,194,194,194,194,194,194,194,194,194,194,194,194,194,194,194,194,2106,194,194,194,194,194,2106,25348,194,194,194,194,194,194,194,194,27119,34223,47884,13252,19576,47962,22490,51419,
37,149,149,149,149,149,149,149,149,194,194,194,194,194,194,19355,194,194,194,194,194,194,194,194,194,194,194,194,194,194,194,194,194,194,194,194,194,194,194,194,194,194,194,194,194,194,194,194,194,194,194,194,194,194,10592,194,194,194,194,194,194,194,194,194,194,194,194,194,12122,194,149,194,194,53359,39473,194,194,21604,2570,165,40166,
38,149,149,149,149,149,149,149,149,194,194,194,194,194,194,194,194,194,194,194,194,194,165,194,11334,194,11305,194,194,194,194,194,194,194,194,194,194,194,194,194,194,194,194,194,194,20814,194,194,194,194,194,194,165,194,194,194,194,194,194,194,194,194,194,194,194,194,194,194,194,194,194,194,194,18997,30083,194,165,39245,194,165,49234,
39,149,149,149,149,149,149,149,149,194,194,194,194,194,194,194,194,194,6001,194,194,194,194,194,194,194,194,2481,194,194,165,194,4348,8796,194,194,194,194,194,194,165,194,194,194,194,194,194,194,194,194,194,165,194,194,194,194,194,194,194,194,194,194,194,194,194,165,194,194,194,165,194,194,194,43243,194,54841,3072,17137,44405,19693,165,
40,149,149,149,149,149,149,149,149,165,194,194,194,194,194,165,194,165,22164,194,194,194,194,165,194,194,165,194,165,194,194,194,194,194,194,165,194,194,194,194,194,194,194,194,194,194,194,194,194,194,194,194,194,194,194,194,165,194,194,194,194,194,194,194,194,165,194,194,194,194,165,165,194,42918,194,35038,194,23905,35529,46234,35412,
41,149,149,149,149,149,149,149,149,165,194,194,165,194,194,165,194,165,165,165,194,194,194,165,194,194,194,194,149,165,194,194,194,165,165,194,194,14997,194,194,194,194,194,194,194,194,194,194,194,194,165,165,194,871,194,194,194,165,194,194,194,871,194,165,194,194,194,194,165,194,194,194,194,194,38222,20487,27837,194,21811,645,165,
42,149,149,149,149,149,149,149,149,194,165,194,194,165,194,165,194,165,194,165,165,194,165,194,165,165,165,165,165,194,194,165,194,194,194,194,165,194,194,194,165,149,165,165,194,194,194,194,165,165,165,194,165,165,165,194,194,165,194,194,194,194,165,165,165,165,194,194,194,165,194,194,194,33796,51083,194,22079,1780,11434,165,3354,
43,149,149,149,149,149,149,149,149,10396,165,165,194,165,149,165,194,194,165,194,194,165,194,165,165,194,194,194,165,5457,165,165,165,10184,165,194,194,149,165,165,165,165,10184,149,165,10239,165,165,194,165,194,194,194,165,165,194,194,165,165,165,194,5457,165,165,194,165,165,165,7100,194,194,194,165,165,14606,55057,57683,165,165,194,10411,
44,149,149,149,149,149,149,149,149,165,165,165,165,194,194,165,165,165,165,165,165,165,165,165,194,165,165,165,194,165,165,165,165,165,165,165,165,165,165,165,194,165,165,165,165,165,165,194,165,165,165,165,165,165,165,165,10239,165,194,165,165,165,165,165,165,194,165,165,165,165,165,165,165,35587,165,18305,37141,10087,14761,165,50657,
45,149,149,149,149,149,149,149,149,165,165,165,165,165,165,165,165,165,165,149,165,165,165,165,165,165,165,165,165,149,165,165,165,165,165,165,165,165,165,165,194,165,165,165,165,165,165,165,165,165,165,165,165,165,165,165,165,165,165,165,194,165,165,165,165,165,165,165,165,165,165,165,165,32550,27563,18422,165,165,39323,165,165,
46,149,149,149,149,149,149,149,149,165,165,165,165,149,165,165,165,165,165,165,165,165,165,165,149,165,165,165,165,165,165,165,165,165,165,165,165,165,165,165,165,165,165,165,165,165,165,165,165,149,165,165,165,165,165,165,165,165,165,165,165,149,165,165,165,165,165,165,165,165,165,165,165,57460,22946,165,14666,165,165,22690,28171,
47,149,149,149,149,149,149,149,149,165,165,165,165,165,165,165,165,165,149,165,165,165,165,165,165,165,165,165,165,149,165,165,165,165,165,165,165,149,165,165,165,165,165,165,165,165,165,165,165,165,165,165,165,165,165,165,165,165,165,165,165,165,165,165,165,165,165,165,165,165,165,165,165,23332,28421,165,52996,20645,165,41650,165,
48,149,149,149,149,149,149,149,149,165,165,165,165,165,165,165,165,165,165,165,165,165,165,165,165,165,149,165,165,165,165,165,165,165,165,165,165,165,165,165,165,165,165,165,165,165,165,165,165,165,165,165,165,165,165,165,165,165,165,149,165,165,165,165,165,165,165,165,165,165,149,165,165,165,20108,42026,54947,165,47421,45452,165,
49,149,149,149,149,149,149,149,149,165,165,165,165,149,165,165,165,165,165,165,149,165,7362,165,9378,165,165,165,165,165,165,149,165,165,165,165,165,165,165,165,165,165,165,165,165,149,165,9378,15895,165,165,165,165,165,165,165,165,165,165,165,165,165,165,7362,7362,165,7362,165,7362,165,165,165,165,49376,15774,43791,165,165,165,46662,43028,
50,149,149,149,149,149,149,149,149,165,165,165,165,165,165,165,165,165,165,165,165,12003,165,165,165,165,165,165,165,165,165,165,165,165,165,165,165,165,165,165,165,165,165,165,165,19773,19773,165,165,165,165,165,165,165,26836,165,165,165,165,165,165,165,165,165,165,165,165,165,149,165,165,165,165,41849,165,165,36927,165,32434,165,165,
51,149,149,149,149,149,149,149,149,165,165,165,165,165,165,165,165,165,165,165,165,165,165,165,165,165,165,165,165,165,165,165,165,165,165,165,165,165,165,165,165,165,165,165,165,165,165,165,165,165,165,165,165,165,165,165,165,165,165,165,165,165,165,165,165,165,165,165,165,165,165,165,165,165,165,30145,58528,165,42414,165,45242,
52,149,149,149,149,149,149,149,149,165,165,165,165,165,165,165,165,165,165,165,165,165,165,165,165,165,165,165,165,165,165,165,165,165,165,165,165,165,165,165,165,165,165,165,165,165,165,165,165,165,165,165,165,165,165,165,165,165,165,165,165,165,165,165,165,165,165,165,165,165,165,165,165,165,165,165,48770,165,11978,165,56746,
53,149,149,149,149,149,149,149,149,165,165,165,165,165,165,165,165,165,165,165,165,165,165,165,165,165,165,165,165,165,165,165,165,165,165,165,165,165,1082,165,165,165,165,165,165,165,165,165,165,165,33949,165,165,165,165,165,165,165,165,165,165,165,165,165,165,165,165,165,165,165,165,165,165,35328,165,165,24160,28358,13261,165,51895,
54,149,149,149,149,149,149,149,149,165,165,165,165,165,149,165,165,165,165,165,165,165,165,165,165,165,165,165,165,165,165,165,165,165,165,165,165,165,165,165,165,165,165,165,165,165,165,165,165,165,165,165,165,165,165,165,165,14045,165,165,165,165,165,31567,165,165,165,165,165,165,14045,9304,165,53707,19585,165,56574,50686,22786,165,27338,
55,149,149,149,149,149,149,149,149,165,165,165,165,165,165,165,165,165,165,165,165,165,165,165,165,165,165,165,165,165,165,165,165,165,165,165,165,165,165,165,165,165,165,165,165,165,165,165,165,165,165,165,165,165,165,165,165,165,165,165,165,165,165,165,165,165,165,165,165,165,165,165,165,21997,38646,23521,21808,165,34924,165,165,
56,149,149,149,149,149,149,149,149,165,165,165,11016,165,165,165,165,165,165,5059,165,165,165,165,165,165,25548,165,165,165,165,24550,165,165,165,165,165,165,165,165,165,165,165,165,5059,165,165,165,165,165,165,165,165,165,165,165,165,165,165,165,165,165,165,165,165,165,165,165,165,165,165,165,165,165,17897,165,27501,165,58395,28576,7449,
57,149,149,149,149,149,149,149,149,165,165,165,165,165,165,165,165,25548,165,165,165,165,165,165,165,165,165,165,165,165,165,165,165,165,165,165,165,165,165,165,165,165,165,165,165,165,165,165,165,165,165,165,165,165,165,165,165,165,165,165,165,165,165,165,165,165,165,165,165,165,47251,165,165,10383,165,165,165,165,37584,57359,165,
58,149,149,149,149,149,149,149,149,165,165,165,165,165,165,165,165,165,165,165,165,165,165,165,165,165,165,165,165,165,165,165,165,165,165,165,149,165,165,165,165,165,165,165,165,165,165,7284,165,165,165,165,165,165,165,165,165,165,165,165,165,30557,165,165,165,165,165,165,165,165,165,165,165,165,28483,165,165,165,165,15492,34120,
59,149,149,149,149,149,149,149,149,165,165,165,165,149,165,165,165,165,165,165,165,165,165,165,165,165,165,165,165,165,165,165,165,165,165,165,165,165,165,165,165,165,165,165,165,165,165,165,165,165,165,165,165,165,165,165,165,165,165,165,165,165,149,165,165,165,165,165,165,165,165,165,165,165,165,10158,43624,165,61452,165,48590,
60,149,149,149,149,149,149,149,149,165,165,165,165,165,165,165,165,26029,165,165,165,165,165,165,165,165,165,165,24310,165,165,165,165,165,26029,165,165,165,26029,165,165,165,165,165,165,165,165,165,165,165,165,165,165,165,149,165,165,165,165,165,165,165,165,165,165,26029,165,165,165,165,165,165,165,43307,165,165,48717,53188,165,165,42781,
61,149,149,149,149,149,149,149,149,165,149,165,165,165,165,165,165,15954,165,165,165,165,165,165,2846,165,149,18124,165,165,165,165,165,165,165,165,165,165,165,165,165,165,165,165,165,165,165,165,165,165,165,165,165,165,165,165,165,165,165,165,15954,165,165,165,149,165,165,165,12505,165,165,165,165,165,165,46540,20013,165,25779,46966,165,
62,149,149,149,149,149,149,149,149,165,165,165,165,165,165,165,165,165,165,165,165,165,165,165,165,165,165,165,165,165,165,165,165,165,165,165,165,165,165,165,165,165,165,165,165,165,165,165,165,165,165,165,165,165,149,165,165,165,165,165,165,165,165,165,165,165,165,165,165,165,165,165,165,165,165,46498,11772,50990,25497,56705,165,
63,149,149,149,149,149,149,149,149,165,165,165,165,165,165,165,165,165,165,13960,165,165,165,165,165,165,149,165,165,165,165,165,165,165,165,165,165,165,165,165,165,165,165,165,165,165,165,165,165,165,165,165,165,165,165,165,165,165,165,165,149,165,165,165,165,165,165,165,165,21778,165,165,165,165,165,48522,165,50647,39471,165,165,
64,149,149,149,149,149,149,149,149,165,165,165,149,165,165,165,165,165,165,165,165,165,165,165,165,165,165,165,165,165,165,165,165,165,165,165,165,165,165,165,165,165,165,165,165,165,165,165,165,165,165,165,165,165,165,165,165,165,165,165,165,165,8265,165,165,8265,165,165,165,165,165,165,165,165,165,165,54215,51254,165,165,48747,
65,149,149,149,149,149,149,149,149,165,165,165,165,10628,165,165,165,165,16324,165,165,165,165,165,165,165,165,165,165,165,165,165,165,165,165,165,165,149,165,165,165,165,165,165,165,165,165,165,165,165,165,165,165,165,165,165,165,165,165,9451,165,165,165,149,165,165,165,2591,165,165,165,10628,165,49647,165,149,46102,54645,165,165,165,
66,149,149,149,149,149,149,149,149,165,165,165,165,149,165,165,165,165,41741,165,165,2591,165,165,165,165,165,11049,165,165,165,165,165,165,165,165,165,16800,165,165,165,15944,165,165,165,165,165,165,165,165,165,165,165,165,165,165,165,165,16800,165,165,165,165,165,14555,165,165,165,165,165,165,165,165,165,165,32426,51112,165,165,165,39321,
67,149,149,149,149,149,149,149,149,165,165,165,165,165,165,165,165,165,165,165,165,149,165,165,165,165,165,165,165,165,149,165,149,165,165,165,165,165,165,165,165,165,165,165,165,165,165,165,165,165,165,165,165,165,165,165,165,165,165,165,165,165,165,165,165,165,165,165,165,165,165,165,165,165,165,42810,16794,165,50379,19559,11229,
68,149,149,149,149,149,149,149,149,165,165,165,165,165,165,165,165,165,165,165,165,165,165,165,165,165,165,165,165,165,165,165,165,165,165,165,165,165,165,165,165,165,30130,165,165,149,165,165,165,165,165,165,165,165,149,165,165,165,165,165,165,165,165,165,165,149,165,165,165,165,165,165,165,165,47363,165,19478,45557,165,26957,165,
69,149,149,149,149,149,149,149,149,165,165,165,165,165,165,165,165,165,165,165,149,165,165,165,165,165,165,165,165,165,165,165,165,165,165,165,165,165,165,165,165,165,165,165,165,165,165,165,165,165,165,165,165,165,165,165,165,165,165,165,165,165,165,165,165,165,165,165,165,165,165,165,165,165,50557,165,165,43650,165,165,21262,
70,149,149,149,149,149,149,149,149,165,165,165,165,165,165,165,165,165,165,165,165,165,165,165,165,165,165,165,165,165,165,165,165,165,165,165,165,165,165,165,165,165,165,165,165,165,165,165,165,165,165,165,165,165,165,165,165,165,165,165,165,165,165,165,165,165,165,165,165,165,165,165,165,165,165,31300,14161,51151,165,165,165,
71,149,149,149,149,149,149,149,149,165,165,165,165,165,165,165,165,165,165,165,165,165,165,165,165,165,165,165,165,165,165,165,165,165,165,165,165,165,165,165,165,165,165,165,165,165,165,165,165,165,165,165,165,165,165,165,165,165,165,165,165,149,165,165,165,165,165,165,165,165,165,165,165,165,54323,165,165,165,19476,165,165,
72,149,149,149,149,149,149,149,149,165,165,165,165,165,165,165,165,165,165,165,165,165,165,165,20496,165,165,165,165,165,165,165,165,165,165,165,165,165,165,165,165,165,165,165,165,165,165,165,165,165,165,165,165,165,165,165,165,165,165,165,165,165,165,165,165,165,165,165,165,165,165,165,165,165,165,165,165,165,58697,165,165,
73,149,149,149,149,149,149,149,149,165,165,165,165,165,165,165,165,165,165,165,165,165,165,165,165,165,165,165,165,165,165,165,165,165,165,165,165,165,165,165,165,165,165,165,165,165,165,165,165,165,165,165,165,165,149,165,165,165,165,165,165,165,165,165,165,165,165,165,165,165,165,165,165,165,55813,165,165,165,50978,165,165,
74,149,149,149,149,149,149,149,149,165,165,165,165,165,165,165,165,165,165,165,165,165,165,165,165,165,165,165,165,165,165,165,165,165,165,165,149,165,165,165,165,165,165,165,165,165,165,165,165,165,165,165,165,165,165,165,165,165,165,165,165,165,165,165,165,165,165,149,165,165,165,165,165,165,41094,165,44967,165,165,10883,34182,
75,149,149,149,149,149,149,149,149,165,165,165,13802,165,165,165,165,165,165,165,165,165,165,165,165,165,165,165,17643,165,165,165,165,165,165,165,165,165,165,165,165,165,165,165,165,13802,165,165,165,165,165,165,165,165,165,165,165,165,165,165,165,165,165,165,165,165,165,165,165,165,165,165,165,165,165,55005,165,47112,47126,165,165,
76,149,149,149,149,149,149,149,149,165,165,165,165,165,165,32194,165,165,165,165,165,165,165,165,165,165,165,165,165,165,165,165,165,165,165,165,33620,165,165,165,165,165,165,165,165,165,165,165,165,165,165,165,165,165,149,165,165,165,165,165,165,165,165,165,165,20657,165,165,165,165,165,165,165,165,26692,56210,36264,165,165,10167,50381,
77,149,149,149,149,149,149,149,149,165,165,165,165,165,165,165,165,165,165,165,165,3538,165,165,165,165,165,165,165,165,165,165,165,165,165,165,165,165,165,165,165,165,165,165,165,165,165,165,165,165,165,165,165,165,165,165,165,165,165,165,165,165,165,165,165,165,165,165,165,165,165,165,165,45075,165,11847,23639,58490,13200,11728,165,
78,149,149,149,149,149,149,149,149,4041,165,165,165,165,165,165,165,165,165,5692,165,165,165,165,165,165,32832,149,165,165,165,165,165,165,165,165,165,165,165,165,165,165,165,165,165,165,165,165,165,165,165,165,165,165,165,165,165,165,165,165,165,165,165,165,165,165,165,165,165,165,165,165,165,49210,165,43809,165,55840,43126,40701,47884,
79,149,149,149,149,149,149,149,149,165,165,165,165,165,165,165,165,165,165,165,165,165,165,165,165,165,165,165,165,165,165,165,165,165,165,165,165,165,165,165,165,10308,165,165,165,15346,165,165,165,165,165,165,165,165,165,149,165,165,165,165,165,165,165,165,165,165,165,165,165,165,165,165,165,165,165,165,165,22066,165,165,43065,
80,149,149,149,149,149,149,149,149,165,165,165,165,165,165,165,165,165,165,165,165,165,165,165,165,165,165,165,165,165,165,165,165,165,165,165,165,165,165,165,165,165,165,165,15346,165,165,165,165,165,165,165,165,165,165,165,15346,165,165,165,165,165,165,165,165,165,149,165,165,165,165,165,165,24604,43881,165,165,48398,165,28156,30844,
81,149,149,149,149,149,149,149,149,165,165,165,165,165,165,165,165,165,165,165,165,165,165,165,165,165,165,165,165,165,165,165,165,165,165,165,165,35501,165,165,165,165,165,149,165,165,165,165,165,165,165,165,165,165,165,165,165,165,165,165,165,165,165,165,165,165,165,149,165,165,165,165,165,165,165,165,165,165,165,165,34258,
82,149,149,149,149,149,149,149,149,165,10667,165,165,165,165,165,165,165,165,165,165,149,165,165,165,165,165,165,165,165,15011,165,165,165,165,165,165,165,165,165,165,165,165,165,165,165,165,165,165,165,165,165,165,149,165,165,165,165,149,165,165,165,165,165,165,165,165,149,165,165,165,165,165,165,59579,24969,165,51132,44607,52669,165,
83,149,149,149,149,149,149,149,149,165,165,165,165,165,165,165,165,165,165,165,165,165,165,165,165,15298,165,165,165,165,165,165,165,165,165,165,165,165,149,165,165,165,165,165,165,165,165,165,165,165,165,165,165,165,165,165,149,165,165,165,165,165,165,165,149,15298,165,165,165,165,165,165,165,165,165,165,165,24231,165,26423,165,
84,149,149,149,149,149,149,149,149,165,165,165,165,165,165,165,165,149,149,165,165,149,165,165,165,165,165,165,165,165,165,165,165,165,165,165,165,165,165,165,165,165,165,165,165,165,165,165,165,165,165,165,165,165,165,149,165,165,165,165,165,165,165,165,165,165,165,165,165,165,165,165,149,51946,17836,165,165,36118,48159,165,58092,
85,149,149,149,149,149,149,149,149,165,165,165,165,165,165,165,165,165,165,165,165,165,165,165,165,165,165,165,165,165,165,165,165,2996,165,165,165,165,165,165,165,165,165,165,165,165,165,165,165,165,165,165,165,165,165,165,165,165,165,165,165,165,165,165,165,165,165,165,165,16401,8667,16401,165,165,165,40709,165,16337,56577,30030,49194,
86,149,149,149,149,149,149,149,149,165,165,165,165,165,165,165,165,165,165,165,165,165,165,165,165,165,165,165,165,165,165,165,165,165,165,165,165,165,165,165,165,165,165,165,165,165,165,165,165,165,165,165,165,165,165,165,165,17291,165,165,165,165,165,165,165,165,165,165,165,165,165,165,165,165,49996,165,17541,12677,21160,165,19545,
87,149,149,149,149,149,149,149,149,165,165,165,165,165,165,165,165,165,165,165,165,165,165,165,165,165,165,165,165,165,165,165,165,165,165,165,165,165,165,165,165,165,165,165,165,165,165,165,165,165,165,165,165,165,165,165,165,165,165,165,165,165,165,165,165,165,165,165,165,165,165,165,165,165,165,165,165,35105,165,45989,165,
88,149,149,149,149,149,149,149,149,165,165,165,165,165,165,165,165,165,165,165,165,165,32364,165,165,165,165,165,165,165,165,165,165,165,165,165,165,165,165,165,165,165,165,165,165,165,165,165,165,165,165,165,165,165,165,165,165,165,165,165,165,165,165,165,165,165,165,165,165,165,165,165,165,47844,165,165,165,55916,20111,50344,165,
89,149,149,149,149,149,149,149,149,165,165,165,165,165,165,165,149,165,165,165,165,165,165,165,165,165,165,165,165,165,165,165,165,165,165,4930,165,165,165,165,165,165,165,165,165,165,165,165,165,165,165,165,165,165,165,165,165,165,165,165,165,165,165,165,165,165,165,165,165,165,149,165,165,51240,165,58650,51738,165,165,30945,51960,
90,149,149,149,149,149,149,149,149,165,165,165,165,165,165,165,165,165,165,165,165,165,12987,165,165,165,165,165,165,165,28428,165,165,165,2793,165,165,165,165,165,165,165,165,165,165,165,165,165,165,165,165,165,165,165,165,165,165,165,165,165,165,165,165,165,165,165,165,165,165,165,165,165,165,165,165,13011,51748,53876,51304,3604,165,
91,149,149,149,149,149,149,149,149,165,165,165,165,165,165,165,165,165,165,165,165,165,165,165,165,165,149,165,165,165,165,165,165,165,165,165,165,165,165,165,165,165,165,165,165,165,165,165,165,165,165,165,165,165,165,165,149,165,165,165,165,165,165,165,149,165,165,165,165,165,165,165,165,60256,165,165,165,165,40957,165,165,
92,149,149,149,149,149,149,149,149,165,165,165,165,165,149,165,165,165,165,165,165,165,165,165,165,165,165,165,165,165,165,165,165,165,165,165,165,165,165,165,165,165,165,165,165,165,165,165,165,165,165,165,165,165,165,165,165,165,165,165,165,165,165,165,165,165,165,165,165,165,165,165,165,13985,53742,29998,165,40462,47003,36488,47620,
93,149,149,149,149,149,149,149,149,165,165,165,165,165,165,165,165,165,165,165,165,165,165,165,165,165,165,165,165,165,46997,165,165,165,165,165,165,165,165,165,165,165,165,165,165,165,165,165,165,165,165,165,165,165,165,165,165,165,165,165,165,165,165,165,165,165,165,165,165,165,165,165,165,165,47989,59628,41156,165,165,61620,42515,
94,149,149,149,149,149,149,149,149,165,165,165,165,165,165,165,165,165,25246,165,165,165,165,165,165,165,165,165,165,165,165,165,165,165,165,165,165,25638,165,165,165,165,165,165,165,165,23301,165,11162,165,165,165,165,165,165,165,165,165,165,165,165,165,165,165,165,165,165,165,165,165,165,165,165,25824,61294,38037,53182,165,17381,25213,165,
95,149,149,149,149,149,149,149,149,165,165,165,165,165,165,165,165,165,165,165,165,165,165,165,165,165,165,165,165,165,165,15836,165,165,165,165,165,165,165,165,165,165,165,165,165,165,165,165,165,165,165,165,165,165,165,165,165,165,165,165,165,165,165,165,165,165,165,165,165,165,165,165,5554,39509,1461,46397,22059,53496,165,165,165,
96,149,149,149,149,149,149,149,149,165,165,165,165,165,165,165,165,165,165,165,165,165,165,165,165,165,165,165,165,165,165,165,165,165,165,165,165,165,165,165,165,165,165,165,165,165,165,165,165,165,165,165,165,165,165,165,165,165,8485,165,165,165,165,165,165,165,165,4050,165,165,165,165,165,165,56949,165,42598,14266,165,165,165,
97,149,149,149,149,149,149,149,149,165,165,165,165,165,165,165,165,165,165,165,165,165,165,165,165,165,165,165,165,165,165,165,165,165,165,165,165,165,165,165,165,165,165,165,165,165,165,165,165,165,165,165,165,165,165,165,165,165,165,165,165,165,165,165,165,165,165,165,165,165,165,165,165,165,165,43916,165,165,165,165,41718,
98,149,149,149,149,149,149,149,149,165,165,165,165,165,165,165,165,165,165,165,165,165,165,165,165,165,165,165,165,165,165,165,165,165,165,165,165,165,165,165,165,165,165,165,165,165,165,165,165,165,165,165,165,149,165,165,165,165,165,165,165,165,165,165,165,165,165,165,165,165,165,165,165,165,52034,34336,15096,165,165,165,165,
99,149,149,149,149,149,149,149,149,165,165,165,165,165,165,165,165,165,165,165,165,165,165,165,165,165,165,165,165,165,165,165,165,165,165,165,165,165,165,165,165,165,165,165,165,165,165,165,165,165,165,165,165,165,165,165,165,165,165,165,165,165,165,165,165,165,165,165,165,165,165,165,165,16361,165,19819,24271,28717,165,165,57629,
100,149,149,149,149,149,149,149,149,165,17608,165,165,165,165,165,165,165,165,165,165,165,165,165,165,165,165,165,3543,165,165,165,165,165,165,165,165,165,165,165,165,165,165,165,9576,10161,165,165,165,165,165,165,165,165,165,165,165,8310,165,165,165,165,165,165,165,165,165,149,165,165,165,3543,165,165,48912,26849,35001,57051,12931,165,165,
